\ENCODING=ISO-8859-1
\Problem name: IloCplex

Minimize
 obj1: x_a_0 + x_a_1 + x_a_2 + 2 x_a_3 + 2 x_a_4 + x_a_5 + 2 x_a_6 + 2 x_a_7
       + x_a_8 + 3 x_a_9 + 2 x_a_10 + 2 x_a_11 + 2 x_a_12 + 3 x_a_13 + 2 x_a_14
       + 2 x_a_15 + 3 x_a_16 + 3 x_a_17 + 2 x_a_18 + x_a_19 + 3 x_a_20 + x_a_21
       + 3 x_a_22 + x_a_23 + 2 x_a_24 + 3 x_a_25 + 2 x_a_26 + 3 x_a_27 + x_a_28
       + x_a_29 + x_a_30 + 2 x_a_31 + 3 x_a_32 + 2 x_a_33 + 3 x_a_34 + 2 x_a_35
       + x_a_36 + 2 x_a_37 + x_a_38 + 2 x_a_39 + x_a_40 + 3 x_a_41 + x_a_42
       + 2 x_a_43 + 3 x_a_44 + 2 x_a_45 + x_a_46 + 3 x_a_47 + 3 x_a_48 + x_a_49
       + x_a_50 + 3 x_a_51 + 3 x_a_52 + 3 x_a_53 + x_a_54 + 2 x_a_55 + 2 x_a_56
       + 3 x_a_57 + x_a_58 + x_a_59 + x_a_60 + 3 x_a_61 + x_a_62 + x_a_63
       + 2 x_a_64 + 3 x_a_65 + 2 x_a_66 + 2 x_a_67 + 3 x_a_68 + 2 x_a_69
       + x_a_70 + x_a_71 + 3 x_a_72 + x_a_73 + 2 x_a_74 + 2 x_a_75 + 2 x_a_76
       + x_a_77 + 2 x_a_78 + 3 x_a_79 + 3 x_a_80 + x_a_81 + 2 x_a_82 + 2 x_a_83
       + 3 x_a_84 + x_a_85 + 2 x_a_86 + 3 x_a_87 + 3 x_a_88 + x_a_89 + x_a_90
       + 2 x_a_91 + x_a_92 + x_a_93 + 2 x_a_94 + 2 x_a_95 + 3 x_a_96 + x_a_97
       + 3 x_a_98 + 2 x_a_99 + 2 x_a_100 + x_a_101 + 3 x_a_102 + 2 x_a_103
       + 3 x_a_104 + 3 x_a_105 + 3 x_a_106 + x_a_107 + 2 x_a_108 + 2 x_a_109
       + 2 x_a_110 + 2 x_a_111 + x_a_112 + 2 x_a_113 + 2 x_a_114 + x_a_115
       + x_a_116 + x_a_117 + 2 x_a_118 + 2 x_a_119 + 3 x_a_120 + x_a_121
       + 2 x_a_122 + 2 x_a_123 + x_a_124 + x_a_125 + 2 x_a_126 + x_a_127
       + 3 x_a_128 + 2 x_a_129 + 2 x_a_130 + 3 x_a_131 + 2 x_a_132 + 3 x_a_133
       + 2 x_a_134 + x_a_135 + 3 x_a_136 + 3 x_a_137 + 2 x_a_138 + 2 x_a_139
       + 3 x_a_140 + 3 x_a_141 + 2 x_a_142 + 2 x_a_143 + 3 x_a_144 + 3 x_a_145
       + 3 x_a_146 + 3 x_a_147 + x_a_148 + 2 x_a_149 + 3 x_a_150 + 2 x_a_151
       + 3 x_a_152 + 2 x_a_153 + 2 x_a_154 + x_a_155 + 3 x_a_156
       + 1000000000 x_a_157 + 1000000000 x_a_158 + 1000000000 x_a_159
       + 1000000000 x_a_160 + 1000000000 x_a_161 + 1000000000 x_a_162
       + 1000000000 x_a_163 + 1000000000 x_a_164 + 1000000000 x_a_165
       + 1000000000 x_a_166 + 1000000000 x_a_167 + 1000000000 x_a_168
       + 1000000000 x_a_169 + 1000000000 x_a_170 + 1000000000 x_a_171
       + 1000000000 x_a_172 + 1000000000 x_a_173 + 1000000000 x_a_174
       + 1000000000 x_a_175 + 1000000000 x_a_176 + 10000 x_a_177
Subject To
 c1:   y_a_157 + y_a_158 + y_a_159 + y_a_160 + y_a_161 + y_a_162 + y_a_163
       + y_a_164 + y_a_165 + y_a_166 <= 235.2
 c2:   y_a_0 + y_a_1 + y_a_2 + y_a_3 + y_a_4 + y_a_5 + y_a_6 + y_a_7 + y_a_8
        = 0
 c3:   - y_a_0 + y_a_9 + y_a_10  = 0
 c4:   - y_a_1 + y_a_11 + y_a_12 + y_a_13 + y_a_14 + y_a_15 + y_a_16 + y_a_17
       + y_a_18  = 0
 c5:   - y_a_162 - y_a_2 - y_a_11 + y_a_19 + y_a_20 + y_a_21 + y_a_22 + y_a_23
       + y_a_24  = 0
 c6:   - y_a_9 - y_a_12 + y_a_25 + y_a_26 + y_a_27 + y_a_28 + y_a_29 + y_a_30
        = 0
 c7:   - y_a_3 - y_a_19 + y_a_31 + y_a_32  = 0
 c8:   - y_a_13 + y_a_33 + y_a_34 + y_a_35 + y_a_36 + y_a_37 + y_a_38 + y_a_39
       + y_a_40 + y_a_169  = 0
 c9:   - y_a_166 - y_a_4 + y_a_41 + y_a_42 + y_a_43 + y_a_44 + y_a_45  = 0
 c10:  - y_a_157 - y_a_14 + y_a_46 + y_a_47 + y_a_48 + y_a_49 + y_a_50  = 0
 c11:  - y_a_5 - y_a_20 - y_a_33 + y_a_51 + y_a_52 + y_a_53 + y_a_54 + y_a_55
        = 0
 c12:  - y_a_6 + y_a_56 + y_a_57 + y_a_58 + y_a_59 + y_a_60 + y_a_174  = 0
 c13:  - y_a_10 + y_a_61 + y_a_62 + y_a_63 + y_a_64 + y_a_65  = 0
 c14:  - y_a_21 - y_a_46 + y_a_66 + y_a_67 + y_a_68  = 0
 c15:  - y_a_164 - y_a_25 - y_a_61 + y_a_69 + y_a_70 + y_a_71 + y_a_72 + y_a_73
       + y_a_74  = 0
 c16:  - y_a_62 - y_a_69 + y_a_75 + y_a_76 + y_a_77 + y_a_78  = 0
 c17:  - y_a_22 - y_a_51 + y_a_79 + y_a_80 + y_a_81 + y_a_82 + y_a_83  = 0
 c18:  - y_a_34 - y_a_79 + y_a_84 + y_a_85 + y_a_86 + y_a_87  = 0
 c19:  - y_a_26 - y_a_63 - y_a_70 - y_a_84 + y_a_88 + y_a_89 + y_a_90 + y_a_91
       + y_a_92 + y_a_93  = 0
 c20:  - y_a_47 - y_a_80 + y_a_94 + y_a_95 + y_a_96 + y_a_97 + y_a_98 + y_a_99
       + y_a_100 + y_a_101 + y_a_102 + y_a_176  = 0
 c21:  - y_a_31 - y_a_66 - y_a_85 - y_a_94 + y_a_103 + y_a_104 + y_a_105
       + y_a_106  = 0
 c22:  - y_a_158 - y_a_23 - y_a_52 - y_a_56 + y_a_107 + y_a_108 + y_a_109
       + y_a_110  = 0
 c23:  - y_a_41 - y_a_75 + y_a_111 + y_a_112 + y_a_113  = 0
 c24:  - y_a_67 - y_a_111 + y_a_114 + y_a_115 + y_a_116  = 0
 c25:  - y_a_27 - y_a_42 - y_a_76 - y_a_86 + y_a_117 + y_a_118 + y_a_119
       + y_a_175  = 0
 c26:  - y_a_159 - y_a_28 - y_a_48 - y_a_71 + y_a_120 + y_a_121 + y_a_122
       + y_a_123  = 0
 c27:  - y_a_15 - y_a_57 - y_a_88 - y_a_107 - y_a_120 + y_a_124 + y_a_125
       + y_a_126 + y_a_127 + y_a_168  = 0
 c28:  - y_a_24 - y_a_89 - y_a_108 + y_a_128 + y_a_129 + y_a_167  = 0
 c29:  - y_a_90 - y_a_95 - y_a_121 + y_a_130 + y_a_131 + y_a_132 + y_a_133  = 0
 c30:  - y_a_16 - y_a_81 - y_a_87 - y_a_96 - y_a_103 - y_a_130 + y_a_134
       + y_a_135  = 0
 c31:  - y_a_58 - y_a_82 - y_a_91 - y_a_124 - y_a_128 + y_a_136 + y_a_173  = 0
 c32:  - y_a_163 - y_a_29 - y_a_43 - y_a_109 - y_a_131 - y_a_136  = 0
 c33:  - y_a_160 - y_a_97 - y_a_122 - y_a_129 + y_a_137 + y_a_138 + y_a_139
       + y_a_140  = 0
 c34:  - y_a_17 - y_a_49 - y_a_59 - y_a_72 - y_a_112 - y_a_125 - y_a_132
       - y_a_137  = 0
 c35:  - y_a_53 - y_a_64 - y_a_77 - y_a_92 - y_a_138 + y_a_141 + y_a_142  = 0
 c36:  - y_a_7 - y_a_35 - y_a_83 - y_a_98 - y_a_104 + y_a_143 + y_a_144
       + y_a_145  = 0
 c37:  - y_a_8 - y_a_36 - y_a_60 - y_a_99 - y_a_114 - y_a_139 - y_a_141
       + y_a_172  = 0
 c38:  - y_a_37 - y_a_123 - y_a_133 - y_a_134 + y_a_146 + y_a_147  = 0
 c39:  - y_a_100 - y_a_143 + y_a_148 + y_a_149 + y_a_150  = 0
 c40:  - y_a_54 - y_a_78 - y_a_105 - y_a_115 + y_a_151 + y_a_152  = 0
 c41:  - y_a_126 + y_a_153  = 0
 c42:  - y_a_18 - y_a_32 - y_a_38 - y_a_73 - y_a_106  = 0
 c43:  - y_a_165 - y_a_44 - y_a_74 - y_a_117 - y_a_146 - y_a_148 - y_a_153  = 0
 c44:  - y_a_65 - y_a_101 - y_a_116 - y_a_140 - y_a_149  = 0
 c45:  - y_a_93 - y_a_110 - y_a_118 + y_a_154 + y_a_170  = 0
 c46:  - y_a_30 - y_a_68 - y_a_144 + y_a_155  = 0
 c47:  - y_a_39 - y_a_50 - y_a_135 - y_a_142 - y_a_147 - y_a_151 - y_a_154
       + y_a_171  = 0
 c48:  - y_a_45 - y_a_55 - y_a_102 - y_a_113 - y_a_119 - y_a_127 - y_a_145
       - y_a_150 + y_a_156  = 0
 c49:  - y_a_161 - y_a_40 - y_a_152 - y_a_155 - y_a_156  = 0
 c50:  y_a_157 + y_a_158 + y_a_159 + y_a_160 + y_a_161 + y_a_162 + y_a_163
       + y_a_164 + y_a_165 + y_a_166 - y_a_177  = 0
 c51:  - y_a_169 - y_a_174 - y_a_176 - y_a_175 - y_a_168 - y_a_167 - y_a_173
       - y_a_172 - y_a_170 - y_a_171 + y_a_177  = 0
 c52:  y_a_0 + 13 x_a_0 <= 13
 c53:  y_a_1 + 49 x_a_1 <= 49
 c54:  y_a_2 + 28 x_a_2 <= 28
 c55:  y_a_3 + 33 x_a_3 <= 33
 c56:  y_a_4 + 37 x_a_4 <= 37
 c57:  y_a_5 + 22 x_a_5 <= 22
 c58:  y_a_6 + 46 x_a_6 <= 46
 c59:  y_a_7 + 44 x_a_7 <= 44
 c60:  y_a_8 + 9 x_a_8 <= 9
 c61:  y_a_9 + 11 x_a_9 <= 11
 c62:  y_a_10 + 34 x_a_10 <= 34
 c63:  y_a_11 + 33 x_a_11 <= 33
 c64:  y_a_12 + 8 x_a_12 <= 8
 c65:  y_a_13 + 18 x_a_13 <= 18
 c66:  y_a_14 + 4 x_a_14 <= 4
 c67:  y_a_15 + 26 x_a_15 <= 26
 c68:  y_a_16 + 35 x_a_16 <= 35
 c69:  y_a_17 + 2 x_a_17 <= 2
 c70:  y_a_18 + 25 x_a_18 <= 25
 c71:  y_a_19 + 45 x_a_19 <= 45
 c72:  y_a_20 + 33 x_a_20 <= 33
 c73:  y_a_21 + 21 x_a_21 <= 21
 c74:  y_a_22 + 9 x_a_22 <= 9
 c75:  y_a_23 + 10 x_a_23 <= 10
 c76:  y_a_24 + 19 x_a_24 <= 19
 c77:  y_a_25 + 21 x_a_25 <= 21
 c78:  y_a_26 + 4 x_a_26 <= 4
 c79:  y_a_27 + 14 x_a_27 <= 14
 c80:  y_a_28 + 22 x_a_28 <= 22
 c81:  y_a_29 + 24 x_a_29 <= 24
 c82:  y_a_30 + 41 x_a_30 <= 41
 c83:  y_a_31 + 36 x_a_31 <= 36
 c84:  y_a_32 + 5 x_a_32 <= 5
 c85:  y_a_33 + 34 x_a_33 <= 34
 c86:  y_a_34 + 16 x_a_34 <= 16
 c87:  y_a_35 + 18 x_a_35 <= 18
 c88:  y_a_36 + 43 x_a_36 <= 43
 c89:  y_a_37 + 18 x_a_37 <= 18
 c90:  y_a_38 + 36 x_a_38 <= 36
 c91:  y_a_39 + 28 x_a_39 <= 28
 c92:  y_a_40 + 40 x_a_40 <= 40
 c93:  y_a_41 + 26 x_a_41 <= 26
 c94:  y_a_42 + x_a_42 <= 1
 c95:  y_a_43 + 28 x_a_43 <= 28
 c96:  y_a_44 + 33 x_a_44 <= 33
 c97:  y_a_45 + 40 x_a_45 <= 40
 c98:  y_a_46 + x_a_46 <= 1
 c99:  y_a_47 + 26 x_a_47 <= 26
 c100: y_a_48 + 38 x_a_48 <= 38
 c101: y_a_49 + 45 x_a_49 <= 45
 c102: y_a_50 + 37 x_a_50 <= 37
 c103: y_a_51 + 32 x_a_51 <= 32
 c104: y_a_52 + 12 x_a_52 <= 12
 c105: y_a_53 + 12 x_a_53 <= 12
 c106: y_a_54 + 22 x_a_54 <= 22
 c107: y_a_55 + 49 x_a_55 <= 49
 c108: y_a_56 + 31 x_a_56 <= 31
 c109: y_a_57 + 15 x_a_57 <= 15
 c110: y_a_58 + 49 x_a_58 <= 49
 c111: y_a_59 + 11 x_a_59 <= 11
 c112: y_a_60 + 6 x_a_60 <= 6
 c113: y_a_61 + 24 x_a_61 <= 24
 c114: y_a_62 + 47 x_a_62 <= 47
 c115: y_a_63 + 14 x_a_63 <= 14
 c116: y_a_64 + 38 x_a_64 <= 38
 c117: y_a_65 + 49 x_a_65 <= 49
 c118: y_a_66 + 4 x_a_66 <= 4
 c119: y_a_67 + 44 x_a_67 <= 44
 c120: y_a_68 + 12 x_a_68 <= 12
 c121: y_a_69 + 5 x_a_69 <= 5
 c122: y_a_70 + 26 x_a_70 <= 26
 c123: y_a_71 + 23 x_a_71 <= 23
 c124: y_a_72 + 14 x_a_72 <= 14
 c125: y_a_73 + 4 x_a_73 <= 4
 c126: y_a_74 + 31 x_a_74 <= 31
 c127: y_a_75 + 33 x_a_75 <= 33
 c128: y_a_76 + 21 x_a_76 <= 21
 c129: y_a_77 + 34 x_a_77 <= 34
 c130: y_a_78 + x_a_78 <= 1
 c131: y_a_79 + 5 x_a_79 <= 5
 c132: y_a_80 + 16 x_a_80 <= 16
 c133: y_a_81 + 39 x_a_81 <= 39
 c134: y_a_82 + 29 x_a_82 <= 29
 c135: y_a_83 + x_a_83 <= 1
 c136: y_a_84 + 38 x_a_84 <= 38
 c137: y_a_85 + 45 x_a_85 <= 45
 c138: y_a_86 + 4 x_a_86 <= 4
 c139: y_a_87 + 40 x_a_87 <= 40
 c140: y_a_88 + 26 x_a_88 <= 26
 c141: y_a_89 + 46 x_a_89 <= 46
 c142: y_a_90 + 12 x_a_90 <= 12
 c143: y_a_91 + 49 x_a_91 <= 49
 c144: y_a_92 + 42 x_a_92 <= 42
 c145: y_a_93 + 36 x_a_93 <= 36
 c146: y_a_94 + 44 x_a_94 <= 44
 c147: y_a_95 + 2 x_a_95 <= 2
 c148: y_a_96 + 4 x_a_96 <= 4
 c149: y_a_97 + 45 x_a_97 <= 45
 c150: y_a_98 + 12 x_a_98 <= 12
 c151: y_a_99 + 45 x_a_99 <= 45
 c152: y_a_100 + 27 x_a_100 <= 27
 c153: y_a_101 + 29 x_a_101 <= 29
 c154: y_a_102 + x_a_102 <= 1
 c155: y_a_103 + 29 x_a_103 <= 29
 c156: y_a_104 + 11 x_a_104 <= 11
 c157: y_a_105 + 29 x_a_105 <= 29
 c158: y_a_106 + 3 x_a_106 <= 3
 c159: y_a_107 + 15 x_a_107 <= 15
 c160: y_a_108 + 45 x_a_108 <= 45
 c161: y_a_109 + 31 x_a_109 <= 31
 c162: y_a_110 + 31 x_a_110 <= 31
 c163: y_a_111 + 37 x_a_111 <= 37
 c164: y_a_112 + 36 x_a_112 <= 36
 c165: y_a_113 + 7 x_a_113 <= 7
 c166: y_a_114 + 9 x_a_114 <= 9
 c167: y_a_115 + 47 x_a_115 <= 47
 c168: y_a_116 + 40 x_a_116 <= 40
 c169: y_a_117 + 12 x_a_117 <= 12
 c170: y_a_118 + 38 x_a_118 <= 38
 c171: y_a_119 + 10 x_a_119 <= 10
 c172: y_a_120 + 41 x_a_120 <= 41
 c173: y_a_121 + 24 x_a_121 <= 24
 c174: y_a_122 + 11 x_a_122 <= 11
 c175: y_a_123 + 38 x_a_123 <= 38
 c176: y_a_124 + 32 x_a_124 <= 32
 c177: y_a_125 + 43 x_a_125 <= 43
 c178: y_a_126 + 34 x_a_126 <= 34
 c179: y_a_127 + 48 x_a_127 <= 48
 c180: y_a_128 + 41 x_a_128 <= 41
 c181: y_a_129 + 33 x_a_129 <= 33
 c182: y_a_130 + 12 x_a_130 <= 12
 c183: y_a_131 + 5 x_a_131 <= 5
 c184: y_a_132 + 19 x_a_132 <= 19
 c185: y_a_133 + 10 x_a_133 <= 10
 c186: y_a_134 + 43 x_a_134 <= 43
 c187: y_a_135 + 28 x_a_135 <= 28
 c188: y_a_136 + 21 x_a_136 <= 21
 c189: y_a_137 + 36 x_a_137 <= 36
 c190: y_a_138 + 47 x_a_138 <= 47
 c191: y_a_139 + 13 x_a_139 <= 13
 c192: y_a_140 + 36 x_a_140 <= 36
 c193: y_a_141 + 22 x_a_141 <= 22
 c194: y_a_142 + 27 x_a_142 <= 27
 c195: y_a_143 + 5 x_a_143 <= 5
 c196: y_a_144 + 32 x_a_144 <= 32
 c197: y_a_145 + 18 x_a_145 <= 18
 c198: y_a_146 + 10 x_a_146 <= 10
 c199: y_a_147 + 4 x_a_147 <= 4
 c200: y_a_148 + 10 x_a_148 <= 10
 c201: y_a_149 + 43 x_a_149 <= 43
 c202: y_a_150 + 36 x_a_150 <= 36
 c203: y_a_151 + 3 x_a_151 <= 3
 c204: y_a_152 + 9 x_a_152 <= 9
 c205: y_a_153 + 24 x_a_153 <= 24
 c206: y_a_154 + 29 x_a_154 <= 29
 c207: y_a_155 + 17 x_a_155 <= 17
 c208: y_a_156 + 26 x_a_156 <= 26
 c209: y_a_157 + 50000000 x_a_157 <= 50000000
 c210: y_a_158 + 50000000 x_a_158 <= 50000000
 c211: y_a_159 + 50000000 x_a_159 <= 50000000
 c212: y_a_160 + 50000000 x_a_160 <= 50000000
 c213: y_a_161 + 50000000 x_a_161 <= 50000000
 c214: y_a_162 + 50000000 x_a_162 <= 50000000
 c215: y_a_163 + 50000000 x_a_163 <= 50000000
 c216: y_a_164 + 50000000 x_a_164 <= 50000000
 c217: y_a_165 + 50000000 x_a_165 <= 50000000
 c218: y_a_166 + 50000000 x_a_166 <= 50000000
 c219: y_a_167 + 50000000 x_a_167 <= 50000000
 c220: y_a_168 + 50000000 x_a_168 <= 50000000
 c221: y_a_169 + 50000000 x_a_169 <= 50000000
 c222: y_a_170 + 50000000 x_a_170 <= 50000000
 c223: y_a_171 + 50000000 x_a_171 <= 50000000
 c224: y_a_172 + 50000000 x_a_172 <= 50000000
 c225: y_a_173 + 50000000 x_a_173 <= 50000000
 c226: y_a_174 + 50000000 x_a_174 <= 50000000
 c227: y_a_175 + 50000000 x_a_175 <= 50000000
 c228: y_a_176 + 50000000 x_a_176 <= 50000000
 c229: y_a_177 + 10000 x_a_177 <= 10000
Bounds
 0 <= y_a_157 <= 50000000
 0 <= y_a_158 <= 50000000
 0 <= y_a_159 <= 50000000
 0 <= y_a_160 <= 50000000
 0 <= y_a_161 <= 50000000
 0 <= y_a_162 <= 50000000
 0 <= y_a_163 <= 50000000
 0 <= y_a_164 <= 50000000
 0 <= y_a_165 <= 50000000
 0 <= y_a_166 <= 50000000
 0 <= y_a_0 <= 13
 0 <= y_a_1 <= 49
 0 <= y_a_2 <= 28
 0 <= y_a_3 <= 33
 0 <= y_a_4 <= 37
 0 <= y_a_5 <= 22
 0 <= y_a_6 <= 46
 0 <= y_a_7 <= 44
 0 <= y_a_8 <= 9
 0 <= y_a_9 <= 11
 0 <= y_a_10 <= 34
 0 <= y_a_11 <= 33
 0 <= y_a_12 <= 8
 0 <= y_a_13 <= 18
 0 <= y_a_14 <= 4
 0 <= y_a_15 <= 26
 0 <= y_a_16 <= 35
 0 <= y_a_17 <= 2
 0 <= y_a_18 <= 25
 0 <= y_a_19 <= 45
 0 <= y_a_20 <= 33
 0 <= y_a_21 <= 21
 0 <= y_a_22 <= 9
 0 <= y_a_23 <= 10
 0 <= y_a_24 <= 19
 0 <= y_a_25 <= 21
 0 <= y_a_26 <= 4
 0 <= y_a_27 <= 14
 0 <= y_a_28 <= 22
 0 <= y_a_29 <= 24
 0 <= y_a_30 <= 41
 0 <= y_a_31 <= 36
 0 <= y_a_32 <= 5
 0 <= y_a_33 <= 34
 0 <= y_a_34 <= 16
 0 <= y_a_35 <= 18
 0 <= y_a_36 <= 43
 0 <= y_a_37 <= 18
 0 <= y_a_38 <= 36
 0 <= y_a_39 <= 28
 0 <= y_a_40 <= 40
 0 <= y_a_169 <= 50000000
 0 <= y_a_41 <= 26
 0 <= y_a_42 <= 1
 0 <= y_a_43 <= 28
 0 <= y_a_44 <= 33
 0 <= y_a_45 <= 40
 0 <= y_a_46 <= 1
 0 <= y_a_47 <= 26
 0 <= y_a_48 <= 38
 0 <= y_a_49 <= 45
 0 <= y_a_50 <= 37
 0 <= y_a_51 <= 32
 0 <= y_a_52 <= 12
 0 <= y_a_53 <= 12
 0 <= y_a_54 <= 22
 0 <= y_a_55 <= 49
 0 <= y_a_56 <= 31
 0 <= y_a_57 <= 15
 0 <= y_a_58 <= 49
 0 <= y_a_59 <= 11
 0 <= y_a_60 <= 6
 0 <= y_a_174 <= 50000000
 0 <= y_a_61 <= 24
 0 <= y_a_62 <= 47
 0 <= y_a_63 <= 14
 0 <= y_a_64 <= 38
 0 <= y_a_65 <= 49
 0 <= y_a_66 <= 4
 0 <= y_a_67 <= 44
 0 <= y_a_68 <= 12
 0 <= y_a_69 <= 5
 0 <= y_a_70 <= 26
 0 <= y_a_71 <= 23
 0 <= y_a_72 <= 14
 0 <= y_a_73 <= 4
 0 <= y_a_74 <= 31
 0 <= y_a_75 <= 33
 0 <= y_a_76 <= 21
 0 <= y_a_77 <= 34
 0 <= y_a_78 <= 1
 0 <= y_a_79 <= 5
 0 <= y_a_80 <= 16
 0 <= y_a_81 <= 39
 0 <= y_a_82 <= 29
 0 <= y_a_83 <= 1
 0 <= y_a_84 <= 38
 0 <= y_a_85 <= 45
 0 <= y_a_86 <= 4
 0 <= y_a_87 <= 40
 0 <= y_a_88 <= 26
 0 <= y_a_89 <= 46
 0 <= y_a_90 <= 12
 0 <= y_a_91 <= 49
 0 <= y_a_92 <= 42
 0 <= y_a_93 <= 36
 0 <= y_a_94 <= 44
 0 <= y_a_95 <= 2
 0 <= y_a_96 <= 4
 0 <= y_a_97 <= 45
 0 <= y_a_98 <= 12
 0 <= y_a_99 <= 45
 0 <= y_a_100 <= 27
 0 <= y_a_101 <= 29
 0 <= y_a_102 <= 1
 0 <= y_a_176 <= 50000000
 0 <= y_a_103 <= 29
 0 <= y_a_104 <= 11
 0 <= y_a_105 <= 29
 0 <= y_a_106 <= 3
 0 <= y_a_107 <= 15
 0 <= y_a_108 <= 45
 0 <= y_a_109 <= 31
 0 <= y_a_110 <= 31
 0 <= y_a_111 <= 37
 0 <= y_a_112 <= 36
 0 <= y_a_113 <= 7
 0 <= y_a_114 <= 9
 0 <= y_a_115 <= 47
 0 <= y_a_116 <= 40
 0 <= y_a_117 <= 12
 0 <= y_a_118 <= 38
 0 <= y_a_119 <= 10
 0 <= y_a_175 <= 50000000
 0 <= y_a_120 <= 41
 0 <= y_a_121 <= 24
 0 <= y_a_122 <= 11
 0 <= y_a_123 <= 38
 0 <= y_a_124 <= 32
 0 <= y_a_125 <= 43
 0 <= y_a_126 <= 34
 0 <= y_a_127 <= 48
 0 <= y_a_168 <= 50000000
 0 <= y_a_128 <= 41
 0 <= y_a_129 <= 33
 0 <= y_a_167 <= 50000000
 0 <= y_a_130 <= 12
 0 <= y_a_131 <= 5
 0 <= y_a_132 <= 19
 0 <= y_a_133 <= 10
 0 <= y_a_134 <= 43
 0 <= y_a_135 <= 28
 0 <= y_a_136 <= 21
 0 <= y_a_173 <= 50000000
 0 <= y_a_137 <= 36
 0 <= y_a_138 <= 47
 0 <= y_a_139 <= 13
 0 <= y_a_140 <= 36
 0 <= y_a_141 <= 22
 0 <= y_a_142 <= 27
 0 <= y_a_143 <= 5
 0 <= y_a_144 <= 32
 0 <= y_a_145 <= 18
 0 <= y_a_172 <= 50000000
 0 <= y_a_146 <= 10
 0 <= y_a_147 <= 4
 0 <= y_a_148 <= 10
 0 <= y_a_149 <= 43
 0 <= y_a_150 <= 36
 0 <= y_a_151 <= 3
 0 <= y_a_152 <= 9
 0 <= y_a_153 <= 24
 0 <= y_a_154 <= 29
 0 <= y_a_170 <= 50000000
 0 <= y_a_155 <= 17
 0 <= y_a_171 <= 50000000
 0 <= y_a_156 <= 26
 0 <= y_a_177 <= 10000
 0 <= x_a_0 <= 1
 0 <= x_a_1 <= 1
 0 <= x_a_2 <= 1
 0 <= x_a_3 <= 1
 0 <= x_a_4 <= 1
 0 <= x_a_5 <= 1
 0 <= x_a_6 <= 1
 0 <= x_a_7 <= 1
 0 <= x_a_8 <= 1
 0 <= x_a_9 <= 1
 0 <= x_a_10 <= 1
 0 <= x_a_11 <= 1
 0 <= x_a_12 <= 1
 0 <= x_a_13 <= 1
 0 <= x_a_14 <= 1
 0 <= x_a_15 <= 1
 0 <= x_a_16 <= 1
 0 <= x_a_17 <= 1
 0 <= x_a_18 <= 1
 0 <= x_a_19 <= 1
 0 <= x_a_20 <= 1
 0 <= x_a_21 <= 1
 0 <= x_a_22 <= 1
 0 <= x_a_23 <= 1
 0 <= x_a_24 <= 1
 0 <= x_a_25 <= 1
 0 <= x_a_26 <= 1
 0 <= x_a_27 <= 1
 0 <= x_a_28 <= 1
 0 <= x_a_29 <= 1
 0 <= x_a_30 <= 1
 0 <= x_a_31 <= 1
 0 <= x_a_32 <= 1
 0 <= x_a_33 <= 1
 0 <= x_a_34 <= 1
 0 <= x_a_35 <= 1
 0 <= x_a_36 <= 1
 0 <= x_a_37 <= 1
 0 <= x_a_38 <= 1
 0 <= x_a_39 <= 1
 0 <= x_a_40 <= 1
 0 <= x_a_41 <= 1
 0 <= x_a_42 <= 1
 0 <= x_a_43 <= 1
 0 <= x_a_44 <= 1
 0 <= x_a_45 <= 1
 0 <= x_a_46 <= 1
 0 <= x_a_47 <= 1
 0 <= x_a_48 <= 1
 0 <= x_a_49 <= 1
 0 <= x_a_50 <= 1
 0 <= x_a_51 <= 1
 0 <= x_a_52 <= 1
 0 <= x_a_53 <= 1
 0 <= x_a_54 <= 1
 0 <= x_a_55 <= 1
 0 <= x_a_56 <= 1
 0 <= x_a_57 <= 1
 0 <= x_a_58 <= 1
 0 <= x_a_59 <= 1
 0 <= x_a_60 <= 1
 0 <= x_a_61 <= 1
 0 <= x_a_62 <= 1
 0 <= x_a_63 <= 1
 0 <= x_a_64 <= 1
 0 <= x_a_65 <= 1
 0 <= x_a_66 <= 1
 0 <= x_a_67 <= 1
 0 <= x_a_68 <= 1
 0 <= x_a_69 <= 1
 0 <= x_a_70 <= 1
 0 <= x_a_71 <= 1
 0 <= x_a_72 <= 1
 0 <= x_a_73 <= 1
 0 <= x_a_74 <= 1
 0 <= x_a_75 <= 1
 0 <= x_a_76 <= 1
 0 <= x_a_77 <= 1
 0 <= x_a_78 <= 1
 0 <= x_a_79 <= 1
 0 <= x_a_80 <= 1
 0 <= x_a_81 <= 1
 0 <= x_a_82 <= 1
 0 <= x_a_83 <= 1
 0 <= x_a_84 <= 1
 0 <= x_a_85 <= 1
 0 <= x_a_86 <= 1
 0 <= x_a_87 <= 1
 0 <= x_a_88 <= 1
 0 <= x_a_89 <= 1
 0 <= x_a_90 <= 1
 0 <= x_a_91 <= 1
 0 <= x_a_92 <= 1
 0 <= x_a_93 <= 1
 0 <= x_a_94 <= 1
 0 <= x_a_95 <= 1
 0 <= x_a_96 <= 1
 0 <= x_a_97 <= 1
 0 <= x_a_98 <= 1
 0 <= x_a_99 <= 1
 0 <= x_a_100 <= 1
 0 <= x_a_101 <= 1
 0 <= x_a_102 <= 1
 0 <= x_a_103 <= 1
 0 <= x_a_104 <= 1
 0 <= x_a_105 <= 1
 0 <= x_a_106 <= 1
 0 <= x_a_107 <= 1
 0 <= x_a_108 <= 1
 0 <= x_a_109 <= 1
 0 <= x_a_110 <= 1
 0 <= x_a_111 <= 1
 0 <= x_a_112 <= 1
 0 <= x_a_113 <= 1
 0 <= x_a_114 <= 1
 0 <= x_a_115 <= 1
 0 <= x_a_116 <= 1
 0 <= x_a_117 <= 1
 0 <= x_a_118 <= 1
 0 <= x_a_119 <= 1
 0 <= x_a_120 <= 1
 0 <= x_a_121 <= 1
 0 <= x_a_122 <= 1
 0 <= x_a_123 <= 1
 0 <= x_a_124 <= 1
 0 <= x_a_125 <= 1
 0 <= x_a_126 <= 1
 0 <= x_a_127 <= 1
 0 <= x_a_128 <= 1
 0 <= x_a_129 <= 1
 0 <= x_a_130 <= 1
 0 <= x_a_131 <= 1
 0 <= x_a_132 <= 1
 0 <= x_a_133 <= 1
 0 <= x_a_134 <= 1
 0 <= x_a_135 <= 1
 0 <= x_a_136 <= 1
 0 <= x_a_137 <= 1
 0 <= x_a_138 <= 1
 0 <= x_a_139 <= 1
 0 <= x_a_140 <= 1
 0 <= x_a_141 <= 1
 0 <= x_a_142 <= 1
 0 <= x_a_143 <= 1
 0 <= x_a_144 <= 1
 0 <= x_a_145 <= 1
 0 <= x_a_146 <= 1
 0 <= x_a_147 <= 1
 0 <= x_a_148 <= 1
 0 <= x_a_149 <= 1
 0 <= x_a_150 <= 1
 0 <= x_a_151 <= 1
 0 <= x_a_152 <= 1
 0 <= x_a_153 <= 1
 0 <= x_a_154 <= 1
 0 <= x_a_155 <= 1
 0 <= x_a_156 <= 1
 0 <= x_a_157 <= 1
 0 <= x_a_158 <= 1
 0 <= x_a_159 <= 1
 0 <= x_a_160 <= 1
 0 <= x_a_161 <= 1
 0 <= x_a_162 <= 1
 0 <= x_a_163 <= 1
 0 <= x_a_164 <= 1
 0 <= x_a_165 <= 1
 0 <= x_a_166 <= 1
 0 <= x_a_167 <= 1
 0 <= x_a_168 <= 1
 0 <= x_a_169 <= 1
 0 <= x_a_170 <= 1
 0 <= x_a_171 <= 1
 0 <= x_a_172 <= 1
 0 <= x_a_173 <= 1
 0 <= x_a_174 <= 1
 0 <= x_a_175 <= 1
 0 <= x_a_176 <= 1
 0 <= x_a_177 <= 1
Binaries
 y_a_42  y_a_46  y_a_78  y_a_83  y_a_102  x_a_0  x_a_1  x_a_2  x_a_3  x_a_4 
 x_a_5  x_a_6  x_a_7  x_a_8  x_a_9  x_a_10  x_a_11  x_a_12  x_a_13  x_a_14 
 x_a_15  x_a_16  x_a_17  x_a_18  x_a_19  x_a_20  x_a_21  x_a_22  x_a_23 
 x_a_24  x_a_25  x_a_26  x_a_27  x_a_28  x_a_29  x_a_30  x_a_31  x_a_32 
 x_a_33  x_a_34  x_a_35  x_a_36  x_a_37  x_a_38  x_a_39  x_a_40  x_a_41 
 x_a_42  x_a_43  x_a_44  x_a_45  x_a_46  x_a_47  x_a_48  x_a_49  x_a_50 
 x_a_51  x_a_52  x_a_53  x_a_54  x_a_55  x_a_56  x_a_57  x_a_58  x_a_59 
 x_a_60  x_a_61  x_a_62  x_a_63  x_a_64  x_a_65  x_a_66  x_a_67  x_a_68 
 x_a_69  x_a_70  x_a_71  x_a_72  x_a_73  x_a_74  x_a_75  x_a_76  x_a_77 
 x_a_78  x_a_79  x_a_80  x_a_81  x_a_82  x_a_83  x_a_84  x_a_85  x_a_86 
 x_a_87  x_a_88  x_a_89  x_a_90  x_a_91  x_a_92  x_a_93  x_a_94  x_a_95 
 x_a_96  x_a_97  x_a_98  x_a_99  x_a_100  x_a_101  x_a_102  x_a_103  x_a_104 
 x_a_105  x_a_106  x_a_107  x_a_108  x_a_109  x_a_110  x_a_111  x_a_112 
 x_a_113  x_a_114  x_a_115  x_a_116  x_a_117  x_a_118  x_a_119  x_a_120 
 x_a_121  x_a_122  x_a_123  x_a_124  x_a_125  x_a_126  x_a_127  x_a_128 
 x_a_129  x_a_130  x_a_131  x_a_132  x_a_133  x_a_134  x_a_135  x_a_136 
 x_a_137  x_a_138  x_a_139  x_a_140  x_a_141  x_a_142  x_a_143  x_a_144 
 x_a_145  x_a_146  x_a_147  x_a_148  x_a_149  x_a_150  x_a_151  x_a_152 
 x_a_153  x_a_154  x_a_155  x_a_156  x_a_157  x_a_158  x_a_159  x_a_160 
 x_a_161  x_a_162  x_a_163  x_a_164  x_a_165  x_a_166  x_a_167  x_a_168 
 x_a_169  x_a_170  x_a_171  x_a_172  x_a_173  x_a_174  x_a_175  x_a_176 
 x_a_177 
Generals
 y_a_157  y_a_158  y_a_159  y_a_160  y_a_161  y_a_162  y_a_163  y_a_164 
 y_a_165  y_a_166  y_a_0  y_a_1  y_a_2  y_a_3  y_a_4  y_a_5  y_a_6  y_a_7 
 y_a_8  y_a_9  y_a_10  y_a_11  y_a_12  y_a_13  y_a_14  y_a_15  y_a_16  y_a_17 
 y_a_18  y_a_19  y_a_20  y_a_21  y_a_22  y_a_23  y_a_24  y_a_25  y_a_26 
 y_a_27  y_a_28  y_a_29  y_a_30  y_a_31  y_a_32  y_a_33  y_a_34  y_a_35 
 y_a_36  y_a_37  y_a_38  y_a_39  y_a_40  y_a_169  y_a_41  y_a_43  y_a_44 
 y_a_45  y_a_47  y_a_48  y_a_49  y_a_50  y_a_51  y_a_52  y_a_53  y_a_54 
 y_a_55  y_a_56  y_a_57  y_a_58  y_a_59  y_a_60  y_a_174  y_a_61  y_a_62 
 y_a_63  y_a_64  y_a_65  y_a_66  y_a_67  y_a_68  y_a_69  y_a_70  y_a_71 
 y_a_72  y_a_73  y_a_74  y_a_75  y_a_76  y_a_77  y_a_79  y_a_80  y_a_81 
 y_a_82  y_a_84  y_a_85  y_a_86  y_a_87  y_a_88  y_a_89  y_a_90  y_a_91 
 y_a_92  y_a_93  y_a_94  y_a_95  y_a_96  y_a_97  y_a_98  y_a_99  y_a_100 
 y_a_101  y_a_176  y_a_103  y_a_104  y_a_105  y_a_106  y_a_107  y_a_108 
 y_a_109  y_a_110  y_a_111  y_a_112  y_a_113  y_a_114  y_a_115  y_a_116 
 y_a_117  y_a_118  y_a_119  y_a_175  y_a_120  y_a_121  y_a_122  y_a_123 
 y_a_124  y_a_125  y_a_126  y_a_127  y_a_168  y_a_128  y_a_129  y_a_167 
 y_a_130  y_a_131  y_a_132  y_a_133  y_a_134  y_a_135  y_a_136  y_a_173 
 y_a_137  y_a_138  y_a_139  y_a_140  y_a_141  y_a_142  y_a_143  y_a_144 
 y_a_145  y_a_172  y_a_146  y_a_147  y_a_148  y_a_149  y_a_150  y_a_151 
 y_a_152  y_a_153  y_a_154  y_a_170  y_a_155  y_a_171  y_a_156  y_a_177 
End
